21
4.6	7.1	0	0
5.7	11.4	10	13
4.4	12.3	10	6
2.8	14.3	10	13
3.2	10.3	10	19
3.5	9.8	10	6
4.4	8.4	10	17
7.8	11	10	14
8.8	9.8	10	19
7.7	8.2	10	10
6.3	7.9	10	12
5.4	8.2	10	14
5.8	6.8	10	4
6.7	5.8	10	13
13.8	13.1	10	10
14.1	14.2	10	14
11.2	13.6	10	12
9.7	16.4	10	7
9.5	18.8	10	9
4.7	16.8	10	7
5	5.6	0	0
